p cnf 220 444
102 0
-1 102 0
1 -102 0
103 0
-2 103 0
2 -103 0
104 0
-3 104 0
3 -104 0
105 0
-4 105 0
4 -105 0
106 0
-5 106 0
5 -106 0
107 0
-6 107 0
6 -107 0
108 0
-7 108 0
7 -108 0
109 0
-8 109 0
8 -109 0
110 0
-9 110 0
9 -110 0
111 0
-10 111 0
10 -111 0
112 0
-11 112 0
11 -112 0
113 0
-12 113 0
12 -113 0
114 0
-13 114 0
13 -114 0
115 0
-14 115 0
14 -115 0
116 0
-15 116 0
15 -116 0
117 0
-16 117 0
16 -117 0
118 0
-17 118 0
17 -118 0
119 0
-18 119 0
18 -119 0
120 0
-19 120 0
19 -120 0
121 0
-20 121 0
20 -121 0
122 0
-21 122 0
21 -122 0
123 0
-22 123 0
22 -123 0
124 0
-23 124 0
23 -124 0
125 0
-24 125 0
24 -125 0
126 0
-25 126 0
25 -126 0
127 0
-26 127 0
26 -127 0
128 0
-27 128 0
27 -128 0
129 0
-28 129 0
28 -129 0
130 0
-29 130 0
29 -130 0
131 0
-30 131 0
30 -131 0
132 0
-31 132 0
31 -132 0
133 0
-32 133 0
32 -133 0
134 -63 -39 0
-134 63 0
-134 39 0
135 -101 0
-135 101 0
-34 134 135 0
34 -134 0
34 -135 0
136 -90 0
-136 90 0
137 -55 -48 0
-137 55 0
-137 48 0
-36 136 137 0
36 -136 0
36 -137 0
138 -64 -87 0
-138 64 0
-138 87 0
139 -57 -82 0
-139 57 0
-139 82 0
140 -70 -86 0
-140 70 0
-140 86 0
141 -83 0
-141 83 0
-38 138 139 140 141 0
38 -138 0
38 -139 0
38 -140 0
38 -141 0
142 -87 0
-142 87 0
143 -56 -94 0
-143 56 0
-143 94 0
144 -72 -101 0
-144 72 0
-144 101 0
145 -67 -38 0
-145 67 0
-145 38 0
-39 142 143 144 145 0
39 -142 0
39 -143 0
39 -144 0
39 -145 0
146 -75 0
-146 75 0
147 -68 -38 0
-147 68 0
-147 38 0
-41 146 147 0
41 -146 0
41 -147 0
148 -73 -81 0
-148 73 0
-148 81 0
149 -54 -80 0
-149 54 0
-149 80 0
150 -58 -82 0
-150 58 0
-150 82 0
151 -76 0
-151 76 0
-44 148 149 150 151 0
44 -148 0
44 -149 0
44 -150 0
44 -151 0
152 -82 0
-152 82 0
153 -69 -38 0
-153 69 0
-153 38 0
154 -60 -44 0
-154 60 0
-154 44 0
-46 152 153 154 0
46 -152 0
46 -153 0
46 -154 0
155 -94 0
-155 94 0
156 -65 -39 0
-156 65 0
-156 39 0
-48 155 156 0
48 -155 0
48 -156 0
157 -74 -34 0
-157 74 0
-157 34 0
158 -95 0
-158 95 0
-50 157 158 0
50 -157 0
50 -158 0
159 -51 0
-159 51 0
-52 159 0
52 -159 0
160 -42 0
-160 42 0
-75 160 0
75 -160 0
161 -73 -78 0
-161 73 0
-161 78 0
162 -43 0
-162 43 0
163 -54 -77 0
-163 54 0
-163 77 0
164 -58 -79 0
-164 58 0
-164 79 0
-76 161 162 163 164 0
76 -161 0
76 -162 0
76 -163 0
76 -164 0
165 -74 -78 0
-165 74 0
-165 78 0
166 -91 0
-166 91 0
-77 165 166 0
77 -165 0
77 -166 0
167 -92 0
-167 92 0
168 -63 -85 0
-168 63 0
-168 85 0
-78 167 168 0
78 -167 0
78 -168 0
169 -45 0
-169 45 0
-79 169 0
79 -169 0
170 -74 -81 0
-170 74 0
-170 81 0
171 -93 0
-171 93 0
-80 170 171 0
80 -170 0
80 -171 0
172 -96 0
-172 96 0
173 -63 -87 0
-173 63 0
-173 87 0
-81 172 173 0
81 -172 0
81 -173 0
174 -69 -83 0
-174 69 0
-174 83 0
175 -79 0
-175 79 0
176 -60 -76 0
-176 60 0
-176 76 0
-82 174 175 176 0
82 -174 0
82 -175 0
82 -176 0
177 -70 -84 0
-177 70 0
-177 84 0
178 -57 -79 0
-178 57 0
-178 79 0
179 -64 -85 0
-179 64 0
-179 85 0
180 -62 -75 0
-180 62 0
-180 75 0
181 -37 0
-181 37 0
-83 177 178 179 180 181 0
83 -177 0
83 -178 0
83 -179 0
83 -180 0
83 -181 0
182 -55 -88 0
-182 55 0
-182 88 0
183 -97 0
-183 97 0
-84 182 183 0
84 -182 0
84 -183 0
184 -98 0
-184 98 0
185 -56 -88 0
-185 56 0
-185 88 0
-85 184 185 0
85 -184 0
85 -185 0
186 -55 -89 0
-186 55 0
-186 89 0
187 -99 0
-187 99 0
-86 186 187 0
86 -186 0
86 -187 0
188 -100 0
-188 100 0
189 -56 -89 0
-189 56 0
-189 89 0
-87 188 189 0
87 -188 0
87 -189 0
190 -47 0
-190 47 0
191 -65 -98 0
-191 65 0
-191 98 0
192 -71 -97 0
-192 71 0
-192 97 0
-88 190 191 192 0
88 -190 0
88 -191 0
88 -192 0
193 -71 -99 0
-193 71 0
-193 99 0
194 -88 0
-194 88 0
195 -65 -100 0
-195 65 0
-195 100 0
-89 193 194 195 0
89 -193 0
89 -194 0
89 -195 0
196 -66 -38 0
-196 66 0
-196 38 0
197 -86 0
-197 86 0
-90 196 197 0
90 -196 0
90 -197 0
198 -49 0
-198 49 0
-91 198 0
91 -198 0
199 -33 0
-199 33 0
200 -53 -91 0
-200 53 0
-200 91 0
-92 199 200 0
92 -199 0
92 -200 0
201 -77 0
-201 77 0
202 -61 -76 0
-202 61 0
-202 76 0
-93 201 202 0
93 -201 0
93 -202 0
203 -89 0
-203 89 0
204 -71 -90 0
-204 71 0
-204 90 0
-94 203 204 0
94 -203 0
94 -204 0
205 -61 -44 0
-205 61 0
-205 44 0
206 -80 0
-206 80 0
-95 205 206 0
95 -205 0
95 -206 0
207 -78 0
-207 78 0
208 -59 -76 0
-208 59 0
-208 76 0
209 -53 -93 0
-209 53 0
-209 93 0
-96 207 208 209 0
96 -207 0
96 -208 0
96 -209 0
210 -35 0
-210 35 0
-97 210 0
97 -210 0
211 -40 0
-211 40 0
212 -72 -92 0
-212 72 0
-212 92 0
-98 211 212 0
98 -211 0
98 -212 0
213 -66 -83 0
-213 66 0
-213 83 0
214 -84 0
-214 84 0
-99 213 214 0
99 -213 0
99 -214 0
215 -67 -83 0
-215 67 0
-215 83 0
216 -72 -96 0
-216 72 0
-216 96 0
217 -85 0
-217 85 0
-100 215 216 217 0
100 -215 0
100 -216 0
100 -217 0
218 -81 0
-218 81 0
219 -59 -44 0
-219 59 0
-219 44 0
220 -53 -95 0
-220 53 0
-220 95 0
-101 218 219 220 0
101 -218 0
101 -219 0
101 -220 0
c p weight 1 1.0;1.0;1.0;1.0;1.0;1.0;1.0;1.0;1.0;1.0 0
c p weight -1 1.0;1.0;1.0;1.0;1.0;1.0;1.0;1.0;1.0;1.0 0
c p weight 2 1.0;1.0;1.0;1.0;1.0;1.0;1.0;1.0;1.0;1.0 0
c p weight -2 1.0;1.0;1.0;1.0;1.0;1.0;1.0;1.0;1.0;1.0 0
c p weight 3 1.0;1.0;1.0;1.0;1.0;1.0;1.0;1.0;1.0;1.0 0
c p weight -3 1.0;1.0;1.0;1.0;1.0;1.0;1.0;1.0;1.0;1.0 0
c p weight 4 1.0;1.0;1.0;1.0;1.0;1.0;1.0;1.0;1.0;1.0 0
c p weight -4 1.0;1.0;1.0;1.0;1.0;1.0;1.0;1.0;1.0;1.0 0
c p weight 5 1.0;1.0;1.0;1.0;1.0;1.0;1.0;1.0;1.0;1.0 0
c p weight -5 1.0;1.0;1.0;1.0;1.0;1.0;1.0;1.0;1.0;1.0 0
c p weight 6 1.0;1.0;1.0;1.0;1.0;1.0;1.0;1.0;1.0;1.0 0
c p weight -6 1.0;1.0;1.0;1.0;1.0;1.0;1.0;1.0;1.0;1.0 0
c p weight 7 1.0;1.0;1.0;1.0;1.0;1.0;1.0;1.0;1.0;1.0 0
c p weight -7 1.0;1.0;1.0;1.0;1.0;1.0;1.0;1.0;1.0;1.0 0
c p weight 8 1.0;1.0;1.0;1.0;1.0;1.0;1.0;1.0;1.0;1.0 0
c p weight -8 1.0;1.0;1.0;1.0;1.0;1.0;1.0;1.0;1.0;1.0 0
c p weight 9 1.0;1.0;1.0;1.0;1.0;1.0;1.0;1.0;1.0;1.0 0
c p weight -9 1.0;1.0;1.0;1.0;1.0;1.0;1.0;1.0;1.0;1.0 0
c p weight 10 1.0;1.0;1.0;1.0;1.0;1.0;1.0;1.0;1.0;1.0 0
c p weight -10 1.0;1.0;1.0;1.0;1.0;1.0;1.0;1.0;1.0;1.0 0
c p weight 11 1.0;1.0;1.0;1.0;1.0;1.0;1.0;1.0;1.0;1.0 0
c p weight -11 1.0;1.0;1.0;1.0;1.0;1.0;1.0;1.0;1.0;1.0 0
c p weight 12 1.0;1.0;1.0;1.0;1.0;1.0;1.0;1.0;1.0;1.0 0
c p weight -12 1.0;1.0;1.0;1.0;1.0;1.0;1.0;1.0;1.0;1.0 0
c p weight 13 1.0;1.0;1.0;1.0;1.0;1.0;1.0;1.0;1.0;1.0 0
c p weight -13 1.0;1.0;1.0;1.0;1.0;1.0;1.0;1.0;1.0;1.0 0
c p weight 14 1.0;1.0;1.0;1.0;1.0;1.0;1.0;1.0;1.0;1.0 0
c p weight -14 1.0;1.0;1.0;1.0;1.0;1.0;1.0;1.0;1.0;1.0 0
c p weight 15 1.0;1.0;1.0;1.0;1.0;1.0;1.0;1.0;1.0;1.0 0
c p weight -15 1.0;1.0;1.0;1.0;1.0;1.0;1.0;1.0;1.0;1.0 0
c p weight 16 1.0;1.0;1.0;1.0;1.0;1.0;1.0;1.0;1.0;1.0 0
c p weight -16 1.0;1.0;1.0;1.0;1.0;1.0;1.0;1.0;1.0;1.0 0
c p weight 17 1.0;1.0;1.0;1.0;1.0;1.0;1.0;1.0;1.0;1.0 0
c p weight -17 1.0;1.0;1.0;1.0;1.0;1.0;1.0;1.0;1.0;1.0 0
c p weight 18 1.0;1.0;1.0;1.0;1.0;1.0;1.0;1.0;1.0;1.0 0
c p weight -18 1.0;1.0;1.0;1.0;1.0;1.0;1.0;1.0;1.0;1.0 0
c p weight 19 1.0;1.0;1.0;1.0;1.0;1.0;1.0;1.0;1.0;1.0 0
c p weight -19 1.0;1.0;1.0;1.0;1.0;1.0;1.0;1.0;1.0;1.0 0
c p weight 20 1.0;1.0;1.0;1.0;1.0;1.0;1.0;1.0;1.0;1.0 0
c p weight -20 1.0;1.0;1.0;1.0;1.0;1.0;1.0;1.0;1.0;1.0 0
c p weight 21 1.0;1.0;1.0;1.0;1.0;1.0;1.0;1.0;1.0;1.0 0
c p weight -21 1.0;1.0;1.0;1.0;1.0;1.0;1.0;1.0;1.0;1.0 0
c p weight 22 1.0;1.0;1.0;1.0;1.0;1.0;1.0;1.0;1.0;1.0 0
c p weight -22 1.0;1.0;1.0;1.0;1.0;1.0;1.0;1.0;1.0;1.0 0
c p weight 23 1.0;1.0;1.0;1.0;1.0;1.0;1.0;1.0;1.0;1.0 0
c p weight -23 1.0;1.0;1.0;1.0;1.0;1.0;1.0;1.0;1.0;1.0 0
c p weight 24 1.0;1.0;1.0;1.0;1.0;1.0;1.0;1.0;1.0;1.0 0
c p weight -24 1.0;1.0;1.0;1.0;1.0;1.0;1.0;1.0;1.0;1.0 0
c p weight 25 1.0;1.0;1.0;1.0;1.0;1.0;1.0;1.0;1.0;1.0 0
c p weight -25 1.0;1.0;1.0;1.0;1.0;1.0;1.0;1.0;1.0;1.0 0
c p weight 26 1.0;1.0;1.0;1.0;1.0;1.0;1.0;1.0;1.0;1.0 0
c p weight -26 1.0;1.0;1.0;1.0;1.0;1.0;1.0;1.0;1.0;1.0 0
c p weight 27 1.0;1.0;1.0;1.0;1.0;1.0;1.0;1.0;1.0;1.0 0
c p weight -27 1.0;1.0;1.0;1.0;1.0;1.0;1.0;1.0;1.0;1.0 0
c p weight 28 1.0;1.0;1.0;1.0;1.0;1.0;1.0;1.0;1.0;1.0 0
c p weight -28 1.0;1.0;1.0;1.0;1.0;1.0;1.0;1.0;1.0;1.0 0
c p weight 29 1.0;1.0;1.0;1.0;1.0;1.0;1.0;1.0;1.0;1.0 0
c p weight -29 1.0;1.0;1.0;1.0;1.0;1.0;1.0;1.0;1.0;1.0 0
c p weight 30 1.0;1.0;1.0;1.0;1.0;1.0;1.0;1.0;1.0;1.0 0
c p weight -30 1.0;1.0;1.0;1.0;1.0;1.0;1.0;1.0;1.0;1.0 0
c p weight 31 1.0;1.0;1.0;1.0;1.0;1.0;1.0;1.0;1.0;1.0 0
c p weight -31 1.0;1.0;1.0;1.0;1.0;1.0;1.0;1.0;1.0;1.0 0
c p weight 32 1.0;1.0;1.0;1.0;1.0;1.0;1.0;1.0;1.0;1.0 0
c p weight -32 1.0;1.0;1.0;1.0;1.0;1.0;1.0;1.0;1.0;1.0 0
c p weight 33 0.5;0.5;0.5;0.5;0.5;0.5;0.5;0.5;0.5;0.5 0
c p weight -33 0.5;0.5;0.5;0.5;0.5;0.5;0.5;0.5;0.5;0.5 0
c p weight 34 1.0;1.0;1.0;1.0;1.0;1.0;1.0;1.0;1.0;1.0 0
c p weight -34 0.0;1.0;1.0;1.0;1.0;1.0;1.0;1.0;1.0;1.0 0
c p weight 35 0.5;0.5;0.5;0.5;0.5;0.5;0.5;0.5;0.5;0.5 0
c p weight -35 0.5;0.5;0.5;0.5;0.5;0.5;0.5;0.5;0.5;0.5 0
c p weight 36 1.0;1.0;1.0;1.0;1.0;1.0;1.0;1.0;1.0;1.0 0
c p weight -36 1.0;0.0;1.0;1.0;1.0;1.0;1.0;1.0;1.0;1.0 0
c p weight 37 0.5;0.5;0.5;0.5;0.5;0.5;0.5;0.5;0.5;0.5 0
c p weight -37 0.5;0.5;0.5;0.5;0.5;0.5;0.5;0.5;0.5;0.5 0
c p weight 38 1.0;1.0;1.0;1.0;1.0;1.0;1.0;1.0;1.0;1.0 0
c p weight -38 1.0;1.0;0.0;1.0;1.0;1.0;1.0;1.0;1.0;1.0 0
c p weight 39 1.0;1.0;1.0;1.0;1.0;1.0;1.0;1.0;1.0;1.0 0
c p weight -39 1.0;1.0;1.0;0.0;1.0;1.0;1.0;1.0;1.0;1.0 0
c p weight 40 0.5;0.5;0.5;0.5;0.5;0.5;0.5;0.5;0.5;0.5 0
c p weight -40 0.5;0.5;0.5;0.5;0.5;0.5;0.5;0.5;0.5;0.5 0
c p weight 41 1.0;1.0;1.0;1.0;1.0;1.0;1.0;1.0;1.0;1.0 0
c p weight -41 1.0;1.0;1.0;1.0;0.0;1.0;1.0;1.0;1.0;1.0 0
c p weight 42 0.5;0.5;0.5;0.5;0.5;0.5;0.5;0.5;0.5;0.5 0
c p weight -42 0.5;0.5;0.5;0.5;0.5;0.5;0.5;0.5;0.5;0.5 0
c p weight 43 0.5;0.5;0.5;0.5;0.5;0.5;0.5;0.5;0.5;0.5 0
c p weight -43 0.5;0.5;0.5;0.5;0.5;0.5;0.5;0.5;0.5;0.5 0
c p weight 44 1.0;1.0;1.0;1.0;1.0;1.0;1.0;1.0;1.0;1.0 0
c p weight -44 1.0;1.0;1.0;1.0;1.0;0.0;1.0;1.0;1.0;1.0 0
c p weight 45 0.5;0.5;0.5;0.5;0.5;0.5;0.5;0.5;0.5;0.5 0
c p weight -45 0.5;0.5;0.5;0.5;0.5;0.5;0.5;0.5;0.5;0.5 0
c p weight 46 1.0;1.0;1.0;1.0;1.0;1.0;1.0;1.0;1.0;1.0 0
c p weight -46 1.0;1.0;1.0;1.0;1.0;1.0;0.0;1.0;1.0;1.0 0
c p weight 47 0.5;0.5;0.5;0.5;0.5;0.5;0.5;0.5;0.5;0.5 0
c p weight -47 0.5;0.5;0.5;0.5;0.5;0.5;0.5;0.5;0.5;0.5 0
c p weight 48 1.0;1.0;1.0;1.0;1.0;1.0;1.0;1.0;1.0;1.0 0
c p weight -48 1.0;1.0;1.0;1.0;1.0;1.0;1.0;0.0;1.0;1.0 0
c p weight 49 0.5;0.5;0.5;0.5;0.5;0.5;0.5;0.5;0.5;0.5 0
c p weight -49 0.5;0.5;0.5;0.5;0.5;0.5;0.5;0.5;0.5;0.5 0
c p weight 50 1.0;1.0;1.0;1.0;1.0;1.0;1.0;1.0;1.0;1.0 0
c p weight -50 1.0;1.0;1.0;1.0;1.0;1.0;1.0;1.0;0.0;1.0 0
c p weight 51 0.5;0.5;0.5;0.5;0.5;0.5;0.5;0.5;0.5;0.5 0
c p weight -51 0.5;0.5;0.5;0.5;0.5;0.5;0.5;0.5;0.5;0.5 0
c p weight 52 1.0;1.0;1.0;1.0;1.0;1.0;1.0;1.0;1.0;1.0 0
c p weight -52 1.0;1.0;1.0;1.0;1.0;1.0;1.0;1.0;1.0;0.0 0
c p weight 53 0.5;0.5;0.5;0.5;0.5;0.5;0.5;0.5;0.5;0.5 0
c p weight -53 0.5;0.5;0.5;0.5;0.5;0.5;0.5;0.5;0.5;0.5 0
c p weight 54 0.5;0.5;0.5;0.5;0.5;0.5;0.5;0.5;0.5;0.5 0
c p weight -54 0.5;0.5;0.5;0.5;0.5;0.5;0.5;0.5;0.5;0.5 0
c p weight 55 0.5;0.5;0.5;0.5;0.5;0.5;0.5;0.5;0.5;0.5 0
c p weight -55 0.5;0.5;0.5;0.5;0.5;0.5;0.5;0.5;0.5;0.5 0
c p weight 56 0.5;0.5;0.5;0.5;0.5;0.5;0.5;0.5;0.5;0.5 0
c p weight -56 0.5;0.5;0.5;0.5;0.5;0.5;0.5;0.5;0.5;0.5 0
c p weight 57 0.5;0.5;0.5;0.5;0.5;0.5;0.5;0.5;0.5;0.5 0
c p weight -57 0.5;0.5;0.5;0.5;0.5;0.5;0.5;0.5;0.5;0.5 0
c p weight 58 0.5;0.5;0.5;0.5;0.5;0.5;0.5;0.5;0.5;0.5 0
c p weight -58 0.5;0.5;0.5;0.5;0.5;0.5;0.5;0.5;0.5;0.5 0
c p weight 59 0.5;0.5;0.5;0.5;0.5;0.5;0.5;0.5;0.5;0.5 0
c p weight -59 0.5;0.5;0.5;0.5;0.5;0.5;0.5;0.5;0.5;0.5 0
c p weight 60 0.5;0.5;0.5;0.5;0.5;0.5;0.5;0.5;0.5;0.5 0
c p weight -60 0.5;0.5;0.5;0.5;0.5;0.5;0.5;0.5;0.5;0.5 0
c p weight 61 0.5;0.5;0.5;0.5;0.5;0.5;0.5;0.5;0.5;0.5 0
c p weight -61 0.5;0.5;0.5;0.5;0.5;0.5;0.5;0.5;0.5;0.5 0
c p weight 62 0.5;0.5;0.5;0.5;0.5;0.5;0.5;0.5;0.5;0.5 0
c p weight -62 0.5;0.5;0.5;0.5;0.5;0.5;0.5;0.5;0.5;0.5 0
c p weight 63 0.5;0.5;0.5;0.5;0.5;0.5;0.5;0.5;0.5;0.5 0
c p weight -63 0.5;0.5;0.5;0.5;0.5;0.5;0.5;0.5;0.5;0.5 0
c p weight 64 0.5;0.5;0.5;0.5;0.5;0.5;0.5;0.5;0.5;0.5 0
c p weight -64 0.5;0.5;0.5;0.5;0.5;0.5;0.5;0.5;0.5;0.5 0
c p weight 65 0.5;0.5;0.5;0.5;0.5;0.5;0.5;0.5;0.5;0.5 0
c p weight -65 0.5;0.5;0.5;0.5;0.5;0.5;0.5;0.5;0.5;0.5 0
c p weight 66 0.5;0.5;0.5;0.5;0.5;0.5;0.5;0.5;0.5;0.5 0
c p weight -66 0.5;0.5;0.5;0.5;0.5;0.5;0.5;0.5;0.5;0.5 0
c p weight 67 0.5;0.5;0.5;0.5;0.5;0.5;0.5;0.5;0.5;0.5 0
c p weight -67 0.5;0.5;0.5;0.5;0.5;0.5;0.5;0.5;0.5;0.5 0
c p weight 68 0.5;0.5;0.5;0.5;0.5;0.5;0.5;0.5;0.5;0.5 0
c p weight -68 0.5;0.5;0.5;0.5;0.5;0.5;0.5;0.5;0.5;0.5 0
c p weight 69 0.5;0.5;0.5;0.5;0.5;0.5;0.5;0.5;0.5;0.5 0
c p weight -69 0.5;0.5;0.5;0.5;0.5;0.5;0.5;0.5;0.5;0.5 0
c p weight 70 0.5;0.5;0.5;0.5;0.5;0.5;0.5;0.5;0.5;0.5 0
c p weight -70 0.5;0.5;0.5;0.5;0.5;0.5;0.5;0.5;0.5;0.5 0
c p weight 71 0.5;0.5;0.5;0.5;0.5;0.5;0.5;0.5;0.5;0.5 0
c p weight -71 0.5;0.5;0.5;0.5;0.5;0.5;0.5;0.5;0.5;0.5 0
c p weight 72 0.5;0.5;0.5;0.5;0.5;0.5;0.5;0.5;0.5;0.5 0
c p weight -72 0.5;0.5;0.5;0.5;0.5;0.5;0.5;0.5;0.5;0.5 0
c p weight 73 0.5;0.5;0.5;0.5;0.5;0.5;0.5;0.5;0.5;0.5 0
c p weight -73 0.5;0.5;0.5;0.5;0.5;0.5;0.5;0.5;0.5;0.5 0
c p weight 74 0.5;0.5;0.5;0.5;0.5;0.5;0.5;0.5;0.5;0.5 0
c p weight -74 0.5;0.5;0.5;0.5;0.5;0.5;0.5;0.5;0.5;0.5 0
c p weight 75 1.0;1.0;1.0;1.0;1.0;1.0;1.0;1.0;1.0;1.0 0
c p weight -75 1.0;1.0;1.0;1.0;1.0;1.0;1.0;1.0;1.0;1.0 0
c p weight 76 1.0;1.0;1.0;1.0;1.0;1.0;1.0;1.0;1.0;1.0 0
c p weight -76 1.0;1.0;1.0;1.0;1.0;1.0;1.0;1.0;1.0;1.0 0
c p weight 77 1.0;1.0;1.0;1.0;1.0;1.0;1.0;1.0;1.0;1.0 0
c p weight -77 1.0;1.0;1.0;1.0;1.0;1.0;1.0;1.0;1.0;1.0 0
c p weight 78 1.0;1.0;1.0;1.0;1.0;1.0;1.0;1.0;1.0;1.0 0
c p weight -78 1.0;1.0;1.0;1.0;1.0;1.0;1.0;1.0;1.0;1.0 0
c p weight 79 1.0;1.0;1.0;1.0;1.0;1.0;1.0;1.0;1.0;1.0 0
c p weight -79 1.0;1.0;1.0;1.0;1.0;1.0;1.0;1.0;1.0;1.0 0
c p weight 80 1.0;1.0;1.0;1.0;1.0;1.0;1.0;1.0;1.0;1.0 0
c p weight -80 1.0;1.0;1.0;1.0;1.0;1.0;1.0;1.0;1.0;1.0 0
c p weight 81 1.0;1.0;1.0;1.0;1.0;1.0;1.0;1.0;1.0;1.0 0
c p weight -81 1.0;1.0;1.0;1.0;1.0;1.0;1.0;1.0;1.0;1.0 0
c p weight 82 1.0;1.0;1.0;1.0;1.0;1.0;1.0;1.0;1.0;1.0 0
c p weight -82 1.0;1.0;1.0;1.0;1.0;1.0;1.0;1.0;1.0;1.0 0
c p weight 83 1.0;1.0;1.0;1.0;1.0;1.0;1.0;1.0;1.0;1.0 0
c p weight -83 1.0;1.0;1.0;1.0;1.0;1.0;1.0;1.0;1.0;1.0 0
c p weight 84 1.0;1.0;1.0;1.0;1.0;1.0;1.0;1.0;1.0;1.0 0
c p weight -84 1.0;1.0;1.0;1.0;1.0;1.0;1.0;1.0;1.0;1.0 0
c p weight 85 1.0;1.0;1.0;1.0;1.0;1.0;1.0;1.0;1.0;1.0 0
c p weight -85 1.0;1.0;1.0;1.0;1.0;1.0;1.0;1.0;1.0;1.0 0
c p weight 86 1.0;1.0;1.0;1.0;1.0;1.0;1.0;1.0;1.0;1.0 0
c p weight -86 1.0;1.0;1.0;1.0;1.0;1.0;1.0;1.0;1.0;1.0 0
c p weight 87 1.0;1.0;1.0;1.0;1.0;1.0;1.0;1.0;1.0;1.0 0
c p weight -87 1.0;1.0;1.0;1.0;1.0;1.0;1.0;1.0;1.0;1.0 0
c p weight 88 1.0;1.0;1.0;1.0;1.0;1.0;1.0;1.0;1.0;1.0 0
c p weight -88 1.0;1.0;1.0;1.0;1.0;1.0;1.0;1.0;1.0;1.0 0
c p weight 89 1.0;1.0;1.0;1.0;1.0;1.0;1.0;1.0;1.0;1.0 0
c p weight -89 1.0;1.0;1.0;1.0;1.0;1.0;1.0;1.0;1.0;1.0 0
c p weight 90 1.0;1.0;1.0;1.0;1.0;1.0;1.0;1.0;1.0;1.0 0
c p weight -90 1.0;1.0;1.0;1.0;1.0;1.0;1.0;1.0;1.0;1.0 0
c p weight 91 1.0;1.0;1.0;1.0;1.0;1.0;1.0;1.0;1.0;1.0 0
c p weight -91 1.0;1.0;1.0;1.0;1.0;1.0;1.0;1.0;1.0;1.0 0
c p weight 92 1.0;1.0;1.0;1.0;1.0;1.0;1.0;1.0;1.0;1.0 0
c p weight -92 1.0;1.0;1.0;1.0;1.0;1.0;1.0;1.0;1.0;1.0 0
c p weight 93 1.0;1.0;1.0;1.0;1.0;1.0;1.0;1.0;1.0;1.0 0
c p weight -93 1.0;1.0;1.0;1.0;1.0;1.0;1.0;1.0;1.0;1.0 0
c p weight 94 1.0;1.0;1.0;1.0;1.0;1.0;1.0;1.0;1.0;1.0 0
c p weight -94 1.0;1.0;1.0;1.0;1.0;1.0;1.0;1.0;1.0;1.0 0
c p weight 95 1.0;1.0;1.0;1.0;1.0;1.0;1.0;1.0;1.0;1.0 0
c p weight -95 1.0;1.0;1.0;1.0;1.0;1.0;1.0;1.0;1.0;1.0 0
c p weight 96 1.0;1.0;1.0;1.0;1.0;1.0;1.0;1.0;1.0;1.0 0
c p weight -96 1.0;1.0;1.0;1.0;1.0;1.0;1.0;1.0;1.0;1.0 0
c p weight 97 1.0;1.0;1.0;1.0;1.0;1.0;1.0;1.0;1.0;1.0 0
c p weight -97 1.0;1.0;1.0;1.0;1.0;1.0;1.0;1.0;1.0;1.0 0
c p weight 98 1.0;1.0;1.0;1.0;1.0;1.0;1.0;1.0;1.0;1.0 0
c p weight -98 1.0;1.0;1.0;1.0;1.0;1.0;1.0;1.0;1.0;1.0 0
c p weight 99 1.0;1.0;1.0;1.0;1.0;1.0;1.0;1.0;1.0;1.0 0
c p weight -99 1.0;1.0;1.0;1.0;1.0;1.0;1.0;1.0;1.0;1.0 0
c p weight 100 1.0;1.0;1.0;1.0;1.0;1.0;1.0;1.0;1.0;1.0 0
c p weight -100 1.0;1.0;1.0;1.0;1.0;1.0;1.0;1.0;1.0;1.0 0
c p weight 101 1.0;1.0;1.0;1.0;1.0;1.0;1.0;1.0;1.0;1.0 0
c p weight -101 1.0;1.0;1.0;1.0;1.0;1.0;1.0;1.0;1.0;1.0 0
c p weight 102 1.0;1.0;1.0;1.0;1.0;1.0;1.0;1.0;1.0;1.0 0
c p weight -102 1.0;1.0;1.0;1.0;1.0;1.0;1.0;1.0;1.0;1.0 0
c p weight 103 1.0;1.0;1.0;1.0;1.0;1.0;1.0;1.0;1.0;1.0 0
c p weight -103 1.0;1.0;1.0;1.0;1.0;1.0;1.0;1.0;1.0;1.0 0
c p weight 104 1.0;1.0;1.0;1.0;1.0;1.0;1.0;1.0;1.0;1.0 0
c p weight -104 1.0;1.0;1.0;1.0;1.0;1.0;1.0;1.0;1.0;1.0 0
c p weight 105 1.0;1.0;1.0;1.0;1.0;1.0;1.0;1.0;1.0;1.0 0
c p weight -105 1.0;1.0;1.0;1.0;1.0;1.0;1.0;1.0;1.0;1.0 0
c p weight 106 1.0;1.0;1.0;1.0;1.0;1.0;1.0;1.0;1.0;1.0 0
c p weight -106 1.0;1.0;1.0;1.0;1.0;1.0;1.0;1.0;1.0;1.0 0
c p weight 107 1.0;1.0;1.0;1.0;1.0;1.0;1.0;1.0;1.0;1.0 0
c p weight -107 1.0;1.0;1.0;1.0;1.0;1.0;1.0;1.0;1.0;1.0 0
c p weight 108 1.0;1.0;1.0;1.0;1.0;1.0;1.0;1.0;1.0;1.0 0
c p weight -108 1.0;1.0;1.0;1.0;1.0;1.0;1.0;1.0;1.0;1.0 0
c p weight 109 1.0;1.0;1.0;1.0;1.0;1.0;1.0;1.0;1.0;1.0 0
c p weight -109 1.0;1.0;1.0;1.0;1.0;1.0;1.0;1.0;1.0;1.0 0
c p weight 110 1.0;1.0;1.0;1.0;1.0;1.0;1.0;1.0;1.0;1.0 0
c p weight -110 1.0;1.0;1.0;1.0;1.0;1.0;1.0;1.0;1.0;1.0 0
c p weight 111 1.0;1.0;1.0;1.0;1.0;1.0;1.0;1.0;1.0;1.0 0
c p weight -111 1.0;1.0;1.0;1.0;1.0;1.0;1.0;1.0;1.0;1.0 0
c p weight 112 1.0;1.0;1.0;1.0;1.0;1.0;1.0;1.0;1.0;1.0 0
c p weight -112 1.0;1.0;1.0;1.0;1.0;1.0;1.0;1.0;1.0;1.0 0
c p weight 113 1.0;1.0;1.0;1.0;1.0;1.0;1.0;1.0;1.0;1.0 0
c p weight -113 1.0;1.0;1.0;1.0;1.0;1.0;1.0;1.0;1.0;1.0 0
c p weight 114 1.0;1.0;1.0;1.0;1.0;1.0;1.0;1.0;1.0;1.0 0
c p weight -114 1.0;1.0;1.0;1.0;1.0;1.0;1.0;1.0;1.0;1.0 0
c p weight 115 1.0;1.0;1.0;1.0;1.0;1.0;1.0;1.0;1.0;1.0 0
c p weight -115 1.0;1.0;1.0;1.0;1.0;1.0;1.0;1.0;1.0;1.0 0
c p weight 116 1.0;1.0;1.0;1.0;1.0;1.0;1.0;1.0;1.0;1.0 0
c p weight -116 1.0;1.0;1.0;1.0;1.0;1.0;1.0;1.0;1.0;1.0 0
c p weight 117 1.0;1.0;1.0;1.0;1.0;1.0;1.0;1.0;1.0;1.0 0
c p weight -117 1.0;1.0;1.0;1.0;1.0;1.0;1.0;1.0;1.0;1.0 0
c p weight 118 1.0;1.0;1.0;1.0;1.0;1.0;1.0;1.0;1.0;1.0 0
c p weight -118 1.0;1.0;1.0;1.0;1.0;1.0;1.0;1.0;1.0;1.0 0
c p weight 119 1.0;1.0;1.0;1.0;1.0;1.0;1.0;1.0;1.0;1.0 0
c p weight -119 1.0;1.0;1.0;1.0;1.0;1.0;1.0;1.0;1.0;1.0 0
c p weight 120 1.0;1.0;1.0;1.0;1.0;1.0;1.0;1.0;1.0;1.0 0
c p weight -120 1.0;1.0;1.0;1.0;1.0;1.0;1.0;1.0;1.0;1.0 0
c p weight 121 1.0;1.0;1.0;1.0;1.0;1.0;1.0;1.0;1.0;1.0 0
c p weight -121 1.0;1.0;1.0;1.0;1.0;1.0;1.0;1.0;1.0;1.0 0
c p weight 122 1.0;1.0;1.0;1.0;1.0;1.0;1.0;1.0;1.0;1.0 0
c p weight -122 1.0;1.0;1.0;1.0;1.0;1.0;1.0;1.0;1.0;1.0 0
c p weight 123 1.0;1.0;1.0;1.0;1.0;1.0;1.0;1.0;1.0;1.0 0
c p weight -123 1.0;1.0;1.0;1.0;1.0;1.0;1.0;1.0;1.0;1.0 0
c p weight 124 1.0;1.0;1.0;1.0;1.0;1.0;1.0;1.0;1.0;1.0 0
c p weight -124 1.0;1.0;1.0;1.0;1.0;1.0;1.0;1.0;1.0;1.0 0
c p weight 125 1.0;1.0;1.0;1.0;1.0;1.0;1.0;1.0;1.0;1.0 0
c p weight -125 1.0;1.0;1.0;1.0;1.0;1.0;1.0;1.0;1.0;1.0 0
c p weight 126 1.0;1.0;1.0;1.0;1.0;1.0;1.0;1.0;1.0;1.0 0
c p weight -126 1.0;1.0;1.0;1.0;1.0;1.0;1.0;1.0;1.0;1.0 0
c p weight 127 1.0;1.0;1.0;1.0;1.0;1.0;1.0;1.0;1.0;1.0 0
c p weight -127 1.0;1.0;1.0;1.0;1.0;1.0;1.0;1.0;1.0;1.0 0
c p weight 128 1.0;1.0;1.0;1.0;1.0;1.0;1.0;1.0;1.0;1.0 0
c p weight -128 1.0;1.0;1.0;1.0;1.0;1.0;1.0;1.0;1.0;1.0 0
c p weight 129 1.0;1.0;1.0;1.0;1.0;1.0;1.0;1.0;1.0;1.0 0
c p weight -129 1.0;1.0;1.0;1.0;1.0;1.0;1.0;1.0;1.0;1.0 0
c p weight 130 1.0;1.0;1.0;1.0;1.0;1.0;1.0;1.0;1.0;1.0 0
c p weight -130 1.0;1.0;1.0;1.0;1.0;1.0;1.0;1.0;1.0;1.0 0
c p weight 131 1.0;1.0;1.0;1.0;1.0;1.0;1.0;1.0;1.0;1.0 0
c p weight -131 1.0;1.0;1.0;1.0;1.0;1.0;1.0;1.0;1.0;1.0 0
c p weight 132 1.0;1.0;1.0;1.0;1.0;1.0;1.0;1.0;1.0;1.0 0
c p weight -132 1.0;1.0;1.0;1.0;1.0;1.0;1.0;1.0;1.0;1.0 0
c p weight 133 1.0;1.0;1.0;1.0;1.0;1.0;1.0;1.0;1.0;1.0 0
c p weight -133 1.0;1.0;1.0;1.0;1.0;1.0;1.0;1.0;1.0;1.0 0
c p weight 134 1.0;1.0;1.0;1.0;1.0;1.0;1.0;1.0;1.0;1.0 0
c p weight -134 1.0;1.0;1.0;1.0;1.0;1.0;1.0;1.0;1.0;1.0 0
c p weight 135 1.0;1.0;1.0;1.0;1.0;1.0;1.0;1.0;1.0;1.0 0
c p weight -135 1.0;1.0;1.0;1.0;1.0;1.0;1.0;1.0;1.0;1.0 0
c p weight 136 1.0;1.0;1.0;1.0;1.0;1.0;1.0;1.0;1.0;1.0 0
c p weight -136 1.0;1.0;1.0;1.0;1.0;1.0;1.0;1.0;1.0;1.0 0
c p weight 137 1.0;1.0;1.0;1.0;1.0;1.0;1.0;1.0;1.0;1.0 0
c p weight -137 1.0;1.0;1.0;1.0;1.0;1.0;1.0;1.0;1.0;1.0 0
c p weight 138 1.0;1.0;1.0;1.0;1.0;1.0;1.0;1.0;1.0;1.0 0
c p weight -138 1.0;1.0;1.0;1.0;1.0;1.0;1.0;1.0;1.0;1.0 0
c p weight 139 1.0;1.0;1.0;1.0;1.0;1.0;1.0;1.0;1.0;1.0 0
c p weight -139 1.0;1.0;1.0;1.0;1.0;1.0;1.0;1.0;1.0;1.0 0
c p weight 140 1.0;1.0;1.0;1.0;1.0;1.0;1.0;1.0;1.0;1.0 0
c p weight -140 1.0;1.0;1.0;1.0;1.0;1.0;1.0;1.0;1.0;1.0 0
c p weight 141 1.0;1.0;1.0;1.0;1.0;1.0;1.0;1.0;1.0;1.0 0
c p weight -141 1.0;1.0;1.0;1.0;1.0;1.0;1.0;1.0;1.0;1.0 0
c p weight 142 1.0;1.0;1.0;1.0;1.0;1.0;1.0;1.0;1.0;1.0 0
c p weight -142 1.0;1.0;1.0;1.0;1.0;1.0;1.0;1.0;1.0;1.0 0
c p weight 143 1.0;1.0;1.0;1.0;1.0;1.0;1.0;1.0;1.0;1.0 0
c p weight -143 1.0;1.0;1.0;1.0;1.0;1.0;1.0;1.0;1.0;1.0 0
c p weight 144 1.0;1.0;1.0;1.0;1.0;1.0;1.0;1.0;1.0;1.0 0
c p weight -144 1.0;1.0;1.0;1.0;1.0;1.0;1.0;1.0;1.0;1.0 0
c p weight 145 1.0;1.0;1.0;1.0;1.0;1.0;1.0;1.0;1.0;1.0 0
c p weight -145 1.0;1.0;1.0;1.0;1.0;1.0;1.0;1.0;1.0;1.0 0
c p weight 146 1.0;1.0;1.0;1.0;1.0;1.0;1.0;1.0;1.0;1.0 0
c p weight -146 1.0;1.0;1.0;1.0;1.0;1.0;1.0;1.0;1.0;1.0 0
c p weight 147 1.0;1.0;1.0;1.0;1.0;1.0;1.0;1.0;1.0;1.0 0
c p weight -147 1.0;1.0;1.0;1.0;1.0;1.0;1.0;1.0;1.0;1.0 0
c p weight 148 1.0;1.0;1.0;1.0;1.0;1.0;1.0;1.0;1.0;1.0 0
c p weight -148 1.0;1.0;1.0;1.0;1.0;1.0;1.0;1.0;1.0;1.0 0
c p weight 149 1.0;1.0;1.0;1.0;1.0;1.0;1.0;1.0;1.0;1.0 0
c p weight -149 1.0;1.0;1.0;1.0;1.0;1.0;1.0;1.0;1.0;1.0 0
c p weight 150 1.0;1.0;1.0;1.0;1.0;1.0;1.0;1.0;1.0;1.0 0
c p weight -150 1.0;1.0;1.0;1.0;1.0;1.0;1.0;1.0;1.0;1.0 0
c p weight 151 1.0;1.0;1.0;1.0;1.0;1.0;1.0;1.0;1.0;1.0 0
c p weight -151 1.0;1.0;1.0;1.0;1.0;1.0;1.0;1.0;1.0;1.0 0
c p weight 152 1.0;1.0;1.0;1.0;1.0;1.0;1.0;1.0;1.0;1.0 0
c p weight -152 1.0;1.0;1.0;1.0;1.0;1.0;1.0;1.0;1.0;1.0 0
c p weight 153 1.0;1.0;1.0;1.0;1.0;1.0;1.0;1.0;1.0;1.0 0
c p weight -153 1.0;1.0;1.0;1.0;1.0;1.0;1.0;1.0;1.0;1.0 0
c p weight 154 1.0;1.0;1.0;1.0;1.0;1.0;1.0;1.0;1.0;1.0 0
c p weight -154 1.0;1.0;1.0;1.0;1.0;1.0;1.0;1.0;1.0;1.0 0
c p weight 155 1.0;1.0;1.0;1.0;1.0;1.0;1.0;1.0;1.0;1.0 0
c p weight -155 1.0;1.0;1.0;1.0;1.0;1.0;1.0;1.0;1.0;1.0 0
c p weight 156 1.0;1.0;1.0;1.0;1.0;1.0;1.0;1.0;1.0;1.0 0
c p weight -156 1.0;1.0;1.0;1.0;1.0;1.0;1.0;1.0;1.0;1.0 0
c p weight 157 1.0;1.0;1.0;1.0;1.0;1.0;1.0;1.0;1.0;1.0 0
c p weight -157 1.0;1.0;1.0;1.0;1.0;1.0;1.0;1.0;1.0;1.0 0
c p weight 158 1.0;1.0;1.0;1.0;1.0;1.0;1.0;1.0;1.0;1.0 0
c p weight -158 1.0;1.0;1.0;1.0;1.0;1.0;1.0;1.0;1.0;1.0 0
c p weight 159 1.0;1.0;1.0;1.0;1.0;1.0;1.0;1.0;1.0;1.0 0
c p weight -159 1.0;1.0;1.0;1.0;1.0;1.0;1.0;1.0;1.0;1.0 0
c p weight 160 1.0;1.0;1.0;1.0;1.0;1.0;1.0;1.0;1.0;1.0 0
c p weight -160 1.0;1.0;1.0;1.0;1.0;1.0;1.0;1.0;1.0;1.0 0
c p weight 161 1.0;1.0;1.0;1.0;1.0;1.0;1.0;1.0;1.0;1.0 0
c p weight -161 1.0;1.0;1.0;1.0;1.0;1.0;1.0;1.0;1.0;1.0 0
c p weight 162 1.0;1.0;1.0;1.0;1.0;1.0;1.0;1.0;1.0;1.0 0
c p weight -162 1.0;1.0;1.0;1.0;1.0;1.0;1.0;1.0;1.0;1.0 0
c p weight 163 1.0;1.0;1.0;1.0;1.0;1.0;1.0;1.0;1.0;1.0 0
c p weight -163 1.0;1.0;1.0;1.0;1.0;1.0;1.0;1.0;1.0;1.0 0
c p weight 164 1.0;1.0;1.0;1.0;1.0;1.0;1.0;1.0;1.0;1.0 0
c p weight -164 1.0;1.0;1.0;1.0;1.0;1.0;1.0;1.0;1.0;1.0 0
c p weight 165 1.0;1.0;1.0;1.0;1.0;1.0;1.0;1.0;1.0;1.0 0
c p weight -165 1.0;1.0;1.0;1.0;1.0;1.0;1.0;1.0;1.0;1.0 0
c p weight 166 1.0;1.0;1.0;1.0;1.0;1.0;1.0;1.0;1.0;1.0 0
c p weight -166 1.0;1.0;1.0;1.0;1.0;1.0;1.0;1.0;1.0;1.0 0
c p weight 167 1.0;1.0;1.0;1.0;1.0;1.0;1.0;1.0;1.0;1.0 0
c p weight -167 1.0;1.0;1.0;1.0;1.0;1.0;1.0;1.0;1.0;1.0 0
c p weight 168 1.0;1.0;1.0;1.0;1.0;1.0;1.0;1.0;1.0;1.0 0
c p weight -168 1.0;1.0;1.0;1.0;1.0;1.0;1.0;1.0;1.0;1.0 0
c p weight 169 1.0;1.0;1.0;1.0;1.0;1.0;1.0;1.0;1.0;1.0 0
c p weight -169 1.0;1.0;1.0;1.0;1.0;1.0;1.0;1.0;1.0;1.0 0
c p weight 170 1.0;1.0;1.0;1.0;1.0;1.0;1.0;1.0;1.0;1.0 0
c p weight -170 1.0;1.0;1.0;1.0;1.0;1.0;1.0;1.0;1.0;1.0 0
c p weight 171 1.0;1.0;1.0;1.0;1.0;1.0;1.0;1.0;1.0;1.0 0
c p weight -171 1.0;1.0;1.0;1.0;1.0;1.0;1.0;1.0;1.0;1.0 0
c p weight 172 1.0;1.0;1.0;1.0;1.0;1.0;1.0;1.0;1.0;1.0 0
c p weight -172 1.0;1.0;1.0;1.0;1.0;1.0;1.0;1.0;1.0;1.0 0
c p weight 173 1.0;1.0;1.0;1.0;1.0;1.0;1.0;1.0;1.0;1.0 0
c p weight -173 1.0;1.0;1.0;1.0;1.0;1.0;1.0;1.0;1.0;1.0 0
c p weight 174 1.0;1.0;1.0;1.0;1.0;1.0;1.0;1.0;1.0;1.0 0
c p weight -174 1.0;1.0;1.0;1.0;1.0;1.0;1.0;1.0;1.0;1.0 0
c p weight 175 1.0;1.0;1.0;1.0;1.0;1.0;1.0;1.0;1.0;1.0 0
c p weight -175 1.0;1.0;1.0;1.0;1.0;1.0;1.0;1.0;1.0;1.0 0
c p weight 176 1.0;1.0;1.0;1.0;1.0;1.0;1.0;1.0;1.0;1.0 0
c p weight -176 1.0;1.0;1.0;1.0;1.0;1.0;1.0;1.0;1.0;1.0 0
c p weight 177 1.0;1.0;1.0;1.0;1.0;1.0;1.0;1.0;1.0;1.0 0
c p weight -177 1.0;1.0;1.0;1.0;1.0;1.0;1.0;1.0;1.0;1.0 0
c p weight 178 1.0;1.0;1.0;1.0;1.0;1.0;1.0;1.0;1.0;1.0 0
c p weight -178 1.0;1.0;1.0;1.0;1.0;1.0;1.0;1.0;1.0;1.0 0
c p weight 179 1.0;1.0;1.0;1.0;1.0;1.0;1.0;1.0;1.0;1.0 0
c p weight -179 1.0;1.0;1.0;1.0;1.0;1.0;1.0;1.0;1.0;1.0 0
c p weight 180 1.0;1.0;1.0;1.0;1.0;1.0;1.0;1.0;1.0;1.0 0
c p weight -180 1.0;1.0;1.0;1.0;1.0;1.0;1.0;1.0;1.0;1.0 0
c p weight 181 1.0;1.0;1.0;1.0;1.0;1.0;1.0;1.0;1.0;1.0 0
c p weight -181 1.0;1.0;1.0;1.0;1.0;1.0;1.0;1.0;1.0;1.0 0
c p weight 182 1.0;1.0;1.0;1.0;1.0;1.0;1.0;1.0;1.0;1.0 0
c p weight -182 1.0;1.0;1.0;1.0;1.0;1.0;1.0;1.0;1.0;1.0 0
c p weight 183 1.0;1.0;1.0;1.0;1.0;1.0;1.0;1.0;1.0;1.0 0
c p weight -183 1.0;1.0;1.0;1.0;1.0;1.0;1.0;1.0;1.0;1.0 0
c p weight 184 1.0;1.0;1.0;1.0;1.0;1.0;1.0;1.0;1.0;1.0 0
c p weight -184 1.0;1.0;1.0;1.0;1.0;1.0;1.0;1.0;1.0;1.0 0
c p weight 185 1.0;1.0;1.0;1.0;1.0;1.0;1.0;1.0;1.0;1.0 0
c p weight -185 1.0;1.0;1.0;1.0;1.0;1.0;1.0;1.0;1.0;1.0 0
c p weight 186 1.0;1.0;1.0;1.0;1.0;1.0;1.0;1.0;1.0;1.0 0
c p weight -186 1.0;1.0;1.0;1.0;1.0;1.0;1.0;1.0;1.0;1.0 0
c p weight 187 1.0;1.0;1.0;1.0;1.0;1.0;1.0;1.0;1.0;1.0 0
c p weight -187 1.0;1.0;1.0;1.0;1.0;1.0;1.0;1.0;1.0;1.0 0
c p weight 188 1.0;1.0;1.0;1.0;1.0;1.0;1.0;1.0;1.0;1.0 0
c p weight -188 1.0;1.0;1.0;1.0;1.0;1.0;1.0;1.0;1.0;1.0 0
c p weight 189 1.0;1.0;1.0;1.0;1.0;1.0;1.0;1.0;1.0;1.0 0
c p weight -189 1.0;1.0;1.0;1.0;1.0;1.0;1.0;1.0;1.0;1.0 0
c p weight 190 1.0;1.0;1.0;1.0;1.0;1.0;1.0;1.0;1.0;1.0 0
c p weight -190 1.0;1.0;1.0;1.0;1.0;1.0;1.0;1.0;1.0;1.0 0
c p weight 191 1.0;1.0;1.0;1.0;1.0;1.0;1.0;1.0;1.0;1.0 0
c p weight -191 1.0;1.0;1.0;1.0;1.0;1.0;1.0;1.0;1.0;1.0 0
c p weight 192 1.0;1.0;1.0;1.0;1.0;1.0;1.0;1.0;1.0;1.0 0
c p weight -192 1.0;1.0;1.0;1.0;1.0;1.0;1.0;1.0;1.0;1.0 0
c p weight 193 1.0;1.0;1.0;1.0;1.0;1.0;1.0;1.0;1.0;1.0 0
c p weight -193 1.0;1.0;1.0;1.0;1.0;1.0;1.0;1.0;1.0;1.0 0
c p weight 194 1.0;1.0;1.0;1.0;1.0;1.0;1.0;1.0;1.0;1.0 0
c p weight -194 1.0;1.0;1.0;1.0;1.0;1.0;1.0;1.0;1.0;1.0 0
c p weight 195 1.0;1.0;1.0;1.0;1.0;1.0;1.0;1.0;1.0;1.0 0
c p weight -195 1.0;1.0;1.0;1.0;1.0;1.0;1.0;1.0;1.0;1.0 0
c p weight 196 1.0;1.0;1.0;1.0;1.0;1.0;1.0;1.0;1.0;1.0 0
c p weight -196 1.0;1.0;1.0;1.0;1.0;1.0;1.0;1.0;1.0;1.0 0
c p weight 197 1.0;1.0;1.0;1.0;1.0;1.0;1.0;1.0;1.0;1.0 0
c p weight -197 1.0;1.0;1.0;1.0;1.0;1.0;1.0;1.0;1.0;1.0 0
c p weight 198 1.0;1.0;1.0;1.0;1.0;1.0;1.0;1.0;1.0;1.0 0
c p weight -198 1.0;1.0;1.0;1.0;1.0;1.0;1.0;1.0;1.0;1.0 0
c p weight 199 1.0;1.0;1.0;1.0;1.0;1.0;1.0;1.0;1.0;1.0 0
c p weight -199 1.0;1.0;1.0;1.0;1.0;1.0;1.0;1.0;1.0;1.0 0
c p weight 200 1.0;1.0;1.0;1.0;1.0;1.0;1.0;1.0;1.0;1.0 0
c p weight -200 1.0;1.0;1.0;1.0;1.0;1.0;1.0;1.0;1.0;1.0 0
c p weight 201 1.0;1.0;1.0;1.0;1.0;1.0;1.0;1.0;1.0;1.0 0
c p weight -201 1.0;1.0;1.0;1.0;1.0;1.0;1.0;1.0;1.0;1.0 0
c p weight 202 1.0;1.0;1.0;1.0;1.0;1.0;1.0;1.0;1.0;1.0 0
c p weight -202 1.0;1.0;1.0;1.0;1.0;1.0;1.0;1.0;1.0;1.0 0
c p weight 203 1.0;1.0;1.0;1.0;1.0;1.0;1.0;1.0;1.0;1.0 0
c p weight -203 1.0;1.0;1.0;1.0;1.0;1.0;1.0;1.0;1.0;1.0 0
c p weight 204 1.0;1.0;1.0;1.0;1.0;1.0;1.0;1.0;1.0;1.0 0
c p weight -204 1.0;1.0;1.0;1.0;1.0;1.0;1.0;1.0;1.0;1.0 0
c p weight 205 1.0;1.0;1.0;1.0;1.0;1.0;1.0;1.0;1.0;1.0 0
c p weight -205 1.0;1.0;1.0;1.0;1.0;1.0;1.0;1.0;1.0;1.0 0
c p weight 206 1.0;1.0;1.0;1.0;1.0;1.0;1.0;1.0;1.0;1.0 0
c p weight -206 1.0;1.0;1.0;1.0;1.0;1.0;1.0;1.0;1.0;1.0 0
c p weight 207 1.0;1.0;1.0;1.0;1.0;1.0;1.0;1.0;1.0;1.0 0
c p weight -207 1.0;1.0;1.0;1.0;1.0;1.0;1.0;1.0;1.0;1.0 0
c p weight 208 1.0;1.0;1.0;1.0;1.0;1.0;1.0;1.0;1.0;1.0 0
c p weight -208 1.0;1.0;1.0;1.0;1.0;1.0;1.0;1.0;1.0;1.0 0
c p weight 209 1.0;1.0;1.0;1.0;1.0;1.0;1.0;1.0;1.0;1.0 0
c p weight -209 1.0;1.0;1.0;1.0;1.0;1.0;1.0;1.0;1.0;1.0 0
c p weight 210 1.0;1.0;1.0;1.0;1.0;1.0;1.0;1.0;1.0;1.0 0
c p weight -210 1.0;1.0;1.0;1.0;1.0;1.0;1.0;1.0;1.0;1.0 0
c p weight 211 1.0;1.0;1.0;1.0;1.0;1.0;1.0;1.0;1.0;1.0 0
c p weight -211 1.0;1.0;1.0;1.0;1.0;1.0;1.0;1.0;1.0;1.0 0
c p weight 212 1.0;1.0;1.0;1.0;1.0;1.0;1.0;1.0;1.0;1.0 0
c p weight -212 1.0;1.0;1.0;1.0;1.0;1.0;1.0;1.0;1.0;1.0 0
c p weight 213 1.0;1.0;1.0;1.0;1.0;1.0;1.0;1.0;1.0;1.0 0
c p weight -213 1.0;1.0;1.0;1.0;1.0;1.0;1.0;1.0;1.0;1.0 0
c p weight 214 1.0;1.0;1.0;1.0;1.0;1.0;1.0;1.0;1.0;1.0 0
c p weight -214 1.0;1.0;1.0;1.0;1.0;1.0;1.0;1.0;1.0;1.0 0
c p weight 215 1.0;1.0;1.0;1.0;1.0;1.0;1.0;1.0;1.0;1.0 0
c p weight -215 1.0;1.0;1.0;1.0;1.0;1.0;1.0;1.0;1.0;1.0 0
c p weight 216 1.0;1.0;1.0;1.0;1.0;1.0;1.0;1.0;1.0;1.0 0
c p weight -216 1.0;1.0;1.0;1.0;1.0;1.0;1.0;1.0;1.0;1.0 0
c p weight 217 1.0;1.0;1.0;1.0;1.0;1.0;1.0;1.0;1.0;1.0 0
c p weight -217 1.0;1.0;1.0;1.0;1.0;1.0;1.0;1.0;1.0;1.0 0
c p weight 218 1.0;1.0;1.0;1.0;1.0;1.0;1.0;1.0;1.0;1.0 0
c p weight -218 1.0;1.0;1.0;1.0;1.0;1.0;1.0;1.0;1.0;1.0 0
c p weight 219 1.0;1.0;1.0;1.0;1.0;1.0;1.0;1.0;1.0;1.0 0
c p weight -219 1.0;1.0;1.0;1.0;1.0;1.0;1.0;1.0;1.0;1.0 0
c p weight 220 1.0;1.0;1.0;1.0;1.0;1.0;1.0;1.0;1.0;1.0 0
c p weight -220 1.0;1.0;1.0;1.0;1.0;1.0;1.0;1.0;1.0;1.0 0
c p semirings aspmc.semirings.probabilistic 0
c p quantify 1 2 3 4 5 6 7 8 9 10 11 12 13 14 15 16 17 18 19 20 21 22 23 24 25 26 27 28 29 30 31 32 33 34 35 36 37 38 39 40 41 42 43 44 45 46 47 48 49 50 51 52 53 54 55 56 57 58 59 60 61 62 63 64 65 66 67 68 69 70 71 72 73 74 75 76 77 78 79 80 81 82 83 84 85 86 87 88 89 90 91 92 93 94 95 96 97 98 99 100 101 102 103 104 105 106 107 108 109 110 111 112 113 114 115 116 117 118 119 120 121 122 123 124 125 126 127 128 129 130 131 132 133 134 135 136 137 138 139 140 141 142 143 144 145 146 147 148 149 150 151 152 153 154 155 156 157 158 159 160 161 162 163 164 165 166 167 168 169 170 171 172 173 174 175 176 177 178 179 180 181 182 183 184 185 186 187 188 189 190 191 192 193 194 195 196 197 198 199 200 201 202 203 204 205 206 207 208 209 210 211 212 213 214 215 216 217 218 219 220 0
c p auxilliary 1 2 3 4 5 6 7 8 9 10 11 12 13 14 15 16 17 18 19 20 21 22 23 24 25 26 27 28 29 30 31 32 75 76 77 78 79 80 81 82 83 84 85 86 87 88 89 90 91 92 93 94 95 96 97 98 99 100 101 102 103 104 105 106 107 108 109 110 111 112 113 114 115 116 117 118 119 120 121 122 123 124 125 126 127 128 129 130 131 132 133 134 135 136 137 138 139 140 141 142 143 144 145 146 147 148 149 150 151 152 153 154 155 156 157 158 159 160 161 162 163 164 165 166 167 168 169 170 171 172 173 174 175 176 177 178 179 180 181 182 183 184 185 186 187 188 189 190 191 192 193 194 195 196 197 198 199 200 201 202 203 204 205 206 207 208 209 210 211 212 213 214 215 216 217 218 219 220 0
